
Gurobi 6.5.2 (linux64) logging started Wed Aug 31 10:35:28 2016

Optimize a model with 101 rows, 908 columns and 1817 nonzeros
Coefficient statistics:
  Matrix range    [1e+00, 2e+00]
  Objective range [1e+00, 1e+02]
  Bounds range    [1e+00, 1e+00]
  RHS range       [1e+00, 1e+00]
Found heuristic solution: objective 2760
Presolve removed 51 rows and 50 columns
Presolve time: 0.00s
Presolved: 50 rows, 858 columns, 1716 nonzeros
Variable types: 0 continuous, 858 integer (858 binary)

Root relaxation: objective 5.960000e+02, 62 iterations, 0.00 seconds

    Nodes    |    Current Node    |     Objective Bounds      |     Work
 Expl Unexpl |  Obj  Depth IntInf | Incumbent    BestBd   Gap | It/Node Time

     0     0  596.00000    0    6 2760.00000  596.00000  78.4%     -    0s
H    0     0                     623.0000000  596.00000  4.33%     -    0s
     0     0  597.00000    0    8  623.00000  597.00000  4.17%     -    0s
     0     0  597.00000    0    6  623.00000  597.00000  4.17%     -    0s
*    0     0               0     604.0000000  604.00000  0.00%     -    0s

Cutting planes:
  Gomory: 2
  Zero half: 2

Explored 0 nodes (153 simplex iterations) in 0.02 seconds
Thread count was 8 (of 8 available processors)

Optimal solution found (tolerance 1.00e-04)
Best objective 6.040000000000e+02, best bound 6.040000000000e+02, gap 0.0%
